(set-logic HORN)
(declare-fun state (Int Int Int (Array Int Int) Int (Array Int Int) Int Int (Array Int Int) Int (Array Int Int) Int Bool Bool Bool Int Int Int Int) Bool)
(assert (forall ((|A_9| Int) (|.y.16| Int) (|.y.17| Int) (|B_9| (Array Int Int)) (|C_8| Int) (|D_8| (Array Int Int)) (|E_8| Int) (|.y.18| Int) (|F_8| (Array Int Int)) (|G_8| Int) (|.y.19| (Array Int Int)) (|H_8| Int) (|.loc.20| Bool) (|.loc.21| Bool) (|.loc.22| Bool) (|N_7| Int) (|T| Int) (|L_8| Int) (|S_1| Int) (|.loc.37| Bool) (|.loc.36| Bool) (|.y.32| Int) (|.y.31| (Array Int Int)) (|.y.29| Int) (|.y.34| Int) (|.y.23| Int) (|.y.26| (Array Int Int)) (|.y.27| Int) (|.y.28| (Array Int Int)) (|.loc.35| Bool) (|.y.30| Int) (|.y.33| (Array Int Int)) (|.y.24| Int) (|.y.25| Int) (|.xtv.1| Int) (|.xtv.2| Int) (|.xtv.3| Int) (|.xtv.4| Int)) (=> (and (and (not .loc.20) (not .loc.21)) (not .loc.22)) (state |A_9| |.y.16| |.y.17| |B_9| |C_8| |D_8| |E_8| |.y.18| |F_8| |G_8| |.y.19| |H_8| |.loc.20| |.loc.21| |.loc.22| |N_7| |T| |L_8| |S_1|))))
(assert (forall ((|A_9| Int) (|.y.16| Int) (|.y.17| Int) (|B_9| (Array Int Int)) (|C_8| Int) (|D_8| (Array Int Int)) (|E_8| Int) (|.y.18| Int) (|F_8| (Array Int Int)) (|G_8| Int) (|.y.19| (Array Int Int)) (|H_8| Int) (|.loc.20| Bool) (|.loc.21| Bool) (|.loc.22| Bool) (|N_7| Int) (|T| Int) (|L_8| Int) (|S_1| Int) (|.loc.37| Bool) (|.loc.36| Bool) (|.y.32| Int) (|.y.31| (Array Int Int)) (|.y.29| Int) (|.y.34| Int) (|.y.23| Int) (|.y.26| (Array Int Int)) (|.y.27| Int) (|.y.28| (Array Int Int)) (|.loc.35| Bool) (|.y.30| Int) (|.y.33| (Array Int Int)) (|.y.24| Int) (|.y.25| Int) (|.xtv.1| Int) (|.xtv.2| Int) (|.xtv.3| Int) (|.xtv.4| Int)) (=> (and (state |A_9| |.y.16| |.y.17| |B_9| |C_8| |D_8| |E_8| |.y.18| |F_8| |G_8| |.y.19| |H_8| |.loc.20| |.loc.21| |.loc.22| |N_7| |T| |L_8| |S_1|) (let ((.def_29 (not .loc.20))) (let ((.def_30 (not .loc.21))) (let ((.def_32 (not .loc.22))) (let ((.def_34 (<= G_8 H_8))) (let ((.def_35 (not .def_34))) (let ((.def_47 (and (= (+ C_8 (+ H_8 (* (- 1) N_7))) 0) (= (+ A_9 (+ H_8 (* (- 1) L_8))) 0)))) (let ((.def_55 (not (<= .y.18 E_8)))) (let ((.def_59 (= (+ A_9 (+ E_8 (* (- 1) L_8))) 0))) (let ((.def_63 (= (+ C_8 (+ E_8 (* (- 1) N_7))) 0))) (let ((.def_67 (select B_9 L_8))) (let ((.def_68 (= (select D_8 N_7) .def_67))) (let ((.def_72 (<= A_9 0))) (let ((.def_73 (or (not (<= L_8 0)) .def_72))) (let ((.def_74 (not .def_72))) (let ((.def_75 (<= C_8 0))) (let ((.def_76 (not .def_75))) (let ((.def_80 (or .def_75 (not (<= N_7 0))))) (let ((.def_82 (and .def_73 (and (and .def_74 .def_76) .def_80)))) (let ((.def_87 (not .loc.36))) (let ((.def_96 (= .y.18 0))) (let ((.def_100 (and .loc.21 .def_32))) (let ((.def_103 (not .loc.37))) (let ((.def_107 (<= H_8 E_8))) (let ((.def_110 (= A_9 .y.23))) (let ((.def_113 (= B_9 .y.26))) (let ((.def_116 (= C_8 .y.27))) (let ((.def_119 (= D_8 .y.28))) (let ((.def_138 (not .loc.35))) (let ((.def_140 (= .y.29 0))) (let ((.def_166 (= E_8 .y.29))) (let ((.def_168 (= F_8 .y.31))) (let ((.def_170 (= G_8 .y.32))) (let ((.def_205 (= (+ E_8 (* (- 1) .y.29)) (- 1)))) (let ((.def_207 (= .y.18 .y.30))) (let ((.def_227 (<= .y.18 .y.17))) (let ((.def_234 (<= G_8 0))) (let ((.def_236 (not (<= S_1 0)))) (let ((.def_294 (<= .y.16 0))) (or (or (or (or (or (or (or (or (and (or (and (or (and .def_32 (and .loc.21 (and .loc.20 (and .def_35 .def_47)))) (and (and (and (and .def_29 (and .loc.22 .def_30)) .def_55) .def_59) .def_63)) (and (and (and (not .def_68) .def_82) .loc.37) .def_87)) (and (= H_8 .y.32) (and (= .y.19 .y.31) (and (= G_8 .y.29) (and (and (and (and (and (and (not .def_96) (and (= .y.34 0) (and (and .def_29 (and .loc.36 .def_100)) .def_103))) .def_107) .def_110) .def_113) .def_116) .def_119))))) .loc.35) (and (= H_8 .y.30) (and (= .y.19 .y.28) (and (= G_8 .y.27) (and (and (and .def_113 (and .def_110 (and .def_107 (and .def_96 (and .def_29 (and .def_87 (and .loc.37 .def_100))))))) .def_138) .def_140))))) (and (and (and (and (= (+ H_8 (* (- 1) .y.34)) (- 1)) (and .def_119 (and .def_116 (and .def_113 (and .def_110 (and .def_103 (and .loc.36 (and .loc.35 (and .def_32 (and .loc.21 (and .loc.20 (and .def_68 (and .def_73 (and .def_80 (and .def_35 (and .def_74 (and .def_47 .def_76))))))))))))))))) .def_166) .def_168) .def_170)) (and (= G_8 .y.30) (and (= F_8 .y.28) (and (= E_8 .y.27) (and .def_140 (and .def_138 (and .def_113 (and .def_110 (and .def_87 (and .loc.37 (and .def_32 (and .loc.21 (and .loc.20 .def_34))))))))))))) (and (and (and .def_138 (and .def_119 (and .def_116 (and .def_113 (and .def_110 (and .def_63 (and .def_59 (and .def_55 (and .def_29 (and .def_30 (and .def_87 (and .loc.37 (and .loc.22 (and .def_68 .def_82)))))))))))))) .def_205) .def_207)) (and (= .y.18 .y.34) (and (= E_8 .y.32) (and (= .y.16 .y.23) (and (and (= .y.30 1) (and (= F_8 .y.33) (and .def_140 (and .def_138 (and .def_119 (and .def_116 (and .def_113 (and .def_103 (and .def_30 (and .loc.36 (and .loc.20 .def_32))))))))))) .def_227))))) (and (= H_8 .y.34) (and (or .def_234 .def_236) (and (not .def_107) (and (= (+ E_8 (+ G_8 (* (- 1) S_1))) 0) (and (not .def_234) (and (= .y.30 (ite .def_68 .y.18 0)) (and (= .y.33 (store .y.19 S_1 .def_67)) (and .def_205 (and .def_170 (and .def_138 (and .def_119 (and .def_116 (and .def_113 (and .def_110 (and .def_103 (and .def_63 (and .def_59 (and .def_29 (and .loc.36 (and .def_32 (and .loc.21 .def_82)))))))))))))))))))))) (and (not (<= .y.29 0)) (and (not (<= .y.27 0)) (and (not (<= .y.24 0)) (and (not (<= .y.30 0)) (and (= .y.25 0) (and .def_110 (and .def_103 (and .def_29 (and .def_30 (and .def_87 (and .def_32 .loc.35)))))))))))) (and (= .y.16 .y.24) (and (or .def_236 .def_294) (and (not .def_227) (and (= (+ .y.17 (+ C_8 (* (- 1) N_7))) 0) (and (= (+ .y.16 (+ .y.17 (* (- 1) S_1))) 0) (and (not .def_294) (and (= (+ .y.17 (* (- 1) .y.25)) (- 1)) (and (= .y.26 (store B_9 S_1 L_8)) (and (= .y.28 (store D_8 N_7 T)) (and .def_207 (and .def_168 (and .def_166 (and .def_116 (and .def_110 (and .def_103 (and .def_30 (and .def_87 (and .loc.35 (and .def_32 (and .loc.20 (and .def_76 .def_80))))))))))))))))))))))))))))))))))))))))))))))))))))))))))))) (state |.y.23| |.y.24| |.y.25| |.y.26| |.y.27| |.y.28| |.y.29| |.y.30| |.y.31| |.y.32| |.y.33| |.y.34| |.loc.35| |.loc.36| |.loc.37| |.xtv.1| |.xtv.2| |.xtv.3| |.xtv.4|))))
(assert (forall ((|A_9| Int) (|.y.16| Int) (|.y.17| Int) (|B_9| (Array Int Int)) (|C_8| Int) (|D_8| (Array Int Int)) (|E_8| Int) (|.y.18| Int) (|F_8| (Array Int Int)) (|G_8| Int) (|.y.19| (Array Int Int)) (|H_8| Int) (|.loc.20| Bool) (|.loc.21| Bool) (|.loc.22| Bool) (|N_7| Int) (|T| Int) (|L_8| Int) (|S_1| Int) (|.loc.37| Bool) (|.loc.36| Bool) (|.y.32| Int) (|.y.31| (Array Int Int)) (|.y.29| Int) (|.y.34| Int) (|.y.23| Int) (|.y.26| (Array Int Int)) (|.y.27| Int) (|.y.28| (Array Int Int)) (|.loc.35| Bool) (|.y.30| Int) (|.y.33| (Array Int Int)) (|.y.24| Int) (|.y.25| Int) (|.xtv.1| Int) (|.xtv.2| Int) (|.xtv.3| Int) (|.xtv.4| Int)) (=> (state |A_9| |.y.16| |.y.17| |B_9| |C_8| |D_8| |E_8| |.y.18| |F_8| |G_8| |.y.19| |H_8| |.loc.20| |.loc.21| |.loc.22| |N_7| |T| |L_8| |S_1|) (not (and .loc.22 (and .loc.20 (not .loc.21)))))))
(check-sat)
